(set-info :source |printed by MathSAT|)
(declare-fun |!{$(in_main#0)<l>}| () Int)
(declare-fun |!{$(in_main#0)<l>}.next| () Int)
(declare-fun |!{%memaddr}| () Int)
(declare-fun |!{%memaddr}.next| () Int)
(declare-fun |!{$(in_main#0)<N>}| () Int)
(declare-fun |!{$(in_main#0)<N>}.next| () Int)
(declare-fun |!{$(in_main#0)<&array>}| () Int)
(declare-fun |!{$(in_main#0)<&array>}.next| () Int)
(declare-fun |!{%mem.0}| () (Array Int Int))
(declare-fun |!{%mem.0}.next| () (Array Int Int))
(declare-fun |!{$(in_main#0)<k>}| () Int)
(declare-fun |!{$(in_main#0)<k>}.next| () Int)
(declare-fun |!{$(in_main#0)<k#1>}| () Int)
(declare-fun |!{$(in_main#0)<k#1>}.next| () Int)
(declare-fun |!{$(in_main#0)<k#2>}| () Int)
(declare-fun |!{$(in_main#0)<k#2>}.next| () Int)
(declare-fun |!{$(in_main#0)<$(in___VERIFIER_nondet_int#1)<h#<__VERIFIER_nondet_int.return>>>}| () Int)
(declare-fun |!{$(in_main#0)<$(in___VERIFIER_nondet_int#3)<h#<__VERIFIER_nondet_int.return>>>}| () Int)
(declare-fun |!{$(in_main#0)<$(in_array_insert_last#5)<tmp>>}| () Int)
(declare-fun |!{$(in_main#0)<$(in_array_insert_last#5)<$(in_array_insert_last#0)<tmp>>>}| () Int)
(declare-fun !pc () Int)
(declare-fun !pc.next () Int)
(declare-fun |%{$(in_main#0)<k#1>}#1| () Int)
(declare-fun |%{$(in_main#0)<k#2>}#1| () Int)
(declare-fun |%{$(in_main#0)<l>}#1| () Int)
(declare-fun |%{$(in_main#0)<$(in_array_insert_last#5)<$(in_array_insert_last#0)<tmp>>>}#3| () Int)
(declare-fun |%{%mem.0}#5| () (Array Int Int))
(declare-fun |%{$(in_main#0)<$(in_array_insert_last#5)<tmp>>}#3| () Int)
(define-fun .def_51 () Int (! !pc :next !pc.next))
(define-fun .def_54 () Bool (! (= .def_51 2) :init true))
(define-fun .def_377 () Bool (= .def_51 49))
(define-fun .def_353 () Bool (= !pc.next 69))
(define-fun .def_380 () Bool (and .def_353 .def_377))
(define-fun .def_373 () Bool (= |!{$(in_main#0)<k#1>}.next| 0))
(define-fun .def_8 () Int (! |!{$(in_main#0)<l>}| :next |!{$(in_main#0)<l>}.next|))
(define-fun .def_115 () Bool (= .def_8 |!{$(in_main#0)<l>}.next|))
(define-fun .def_10 () Int (! |!{%memaddr}| :next |!{%memaddr}.next|))
(define-fun .def_101 () Bool (= .def_10 |!{%memaddr}.next|))
(define-fun .def_169 () Bool (and .def_101 .def_115))
(define-fun .def_12 () Int (! |!{$(in_main#0)<N>}| :next |!{$(in_main#0)<N>}.next|))
(define-fun .def_103 () Bool (= .def_12 |!{$(in_main#0)<N>}.next|))
(define-fun .def_170 () Bool (and .def_103 .def_169))
(define-fun .def_16 () (Array Int Int) (! |!{%mem.0}| :next |!{%mem.0}.next|))
(define-fun .def_77 () Bool (= .def_16 |!{%mem.0}.next|))
(define-fun .def_171 () Bool (and .def_77 .def_170))
(define-fun .def_14 () Int (! |!{$(in_main#0)<&array>}| :next |!{$(in_main#0)<&array>}.next|))
(define-fun .def_106 () Bool (= .def_14 |!{$(in_main#0)<&array>}.next|))
(define-fun .def_172 () Bool (and .def_106 .def_171))
(define-fun .def_18 () Int (! |!{$(in_main#0)<k>}| :next |!{$(in_main#0)<k>}.next|))
(define-fun .def_108 () Bool (= .def_18 |!{$(in_main#0)<k>}.next|))
(define-fun .def_173 () Bool (and .def_108 .def_172))
(define-fun .def_374 () Bool (and .def_173 .def_373))
(define-fun .def_22 () Int (! |!{$(in_main#0)<k#2>}| :next |!{$(in_main#0)<k#2>}.next|))
(define-fun .def_112 () Bool (= .def_22 |!{$(in_main#0)<k#2>}.next|))
(define-fun .def_375 () Bool (and .def_112 .def_374))
(define-fun .def_358 () Bool (<= .def_12 .def_18))
(define-fun .def_376 () Bool (and .def_358 .def_375))
(define-fun .def_381 () Bool (and .def_376 .def_380))
(define-fun .def_89 () Bool (= !pc.next 49))
(define-fun .def_378 () Bool (and .def_89 .def_377))
(define-fun .def_366 () Int (* (- 1) |!{$(in_main#0)<k>}.next|))
(define-fun .def_367 () Int (+ .def_18 .def_366))
(define-fun .def_368 () Bool (= .def_367 (- 1)))
(define-fun .def_360 () Int (+ .def_14 .def_18))
(define-fun .def_361 () (Array Int Int) (store .def_16 .def_360 |!{$(in_main#0)<$(in___VERIFIER_nondet_int#3)<h#<__VERIFIER_nondet_int.return>>>}|))
(define-fun .def_363 () Bool (= |!{%mem.0}.next| .def_361))
(define-fun .def_364 () Bool (and .def_170 .def_363))
(define-fun .def_365 () Bool (and .def_106 .def_364))
(define-fun .def_369 () Bool (and .def_365 .def_368))
(define-fun .def_20 () Int (! |!{$(in_main#0)<k#1>}| :next |!{$(in_main#0)<k#1>}.next|))
(define-fun .def_110 () Bool (= .def_20 |!{$(in_main#0)<k#1>}.next|))
(define-fun .def_370 () Bool (and .def_110 .def_369))
(define-fun .def_371 () Bool (and .def_112 .def_370))
(define-fun .def_359 () Bool (not .def_358))
(define-fun .def_372 () Bool (and .def_359 .def_371))
(define-fun .def_379 () Bool (and .def_372 .def_378))
(define-fun .def_382 () Bool (or .def_379 .def_381))
(define-fun .def_350 () Bool (= .def_51 77))
(define-fun .def_354 () Bool (and .def_350 .def_353))
(define-fun .def_344 () Int (* (- 1) |!{$(in_main#0)<k#1>}.next|))
(define-fun .def_345 () Int (+ .def_20 .def_344))
(define-fun .def_346 () Bool (= .def_345 (- 1)))
(define-fun .def_347 () Bool (and .def_173 .def_346))
(define-fun .def_348 () Bool (and .def_112 .def_347))
(define-fun .def_331 () Int (* (- 1) .def_12))
(define-fun .def_332 () Int (+ .def_8 .def_331))
(define-fun .def_333 () Bool (<= (- 1) .def_332))
(define-fun .def_349 () Bool (and .def_333 .def_348))
(define-fun .def_355 () Bool (and .def_349 .def_354))
(define-fun .def_324 () Bool (= !pc.next 77))
(define-fun .def_351 () Bool (and .def_324 .def_350))
(define-fun .def_139 () Int (+ .def_8 .def_14))
(define-fun .def_140 () Int (select .def_16 .def_139))
(define-fun .def_335 () Int (+ .def_14 .def_20))
(define-fun .def_336 () Int (select .def_16 .def_335))
(define-fun .def_337 () Bool (<= .def_336 .def_140))
(define-fun .def_338 () Int (ite .def_337 1 0))
(define-fun .def_339 () Bool (= .def_338 0))
(define-fun .def_340 () Bool (not .def_339))
(define-fun .def_157 () Int (* (- 1) |!{$(in_main#0)<l>}.next|))
(define-fun .def_158 () Int (+ .def_8 .def_157))
(define-fun .def_159 () Bool (= .def_158 (- 1)))
(define-fun .def_160 () Bool (and .def_101 .def_159))
(define-fun .def_161 () Bool (and .def_103 .def_160))
(define-fun .def_162 () Bool (and .def_77 .def_161))
(define-fun .def_163 () Bool (and .def_106 .def_162))
(define-fun .def_164 () Bool (and .def_108 .def_163))
(define-fun .def_165 () Bool (and .def_110 .def_164))
(define-fun .def_166 () Bool (and .def_112 .def_165))
(define-fun .def_342 () Bool (and .def_166 .def_340))
(define-fun .def_334 () Bool (not .def_333))
(define-fun .def_343 () Bool (and .def_334 .def_342))
(define-fun .def_352 () Bool (and .def_343 .def_351))
(define-fun .def_356 () Bool (or .def_352 .def_355))
(define-fun .def_322 () Bool (= .def_51 69))
(define-fun .def_188 () Bool (= !pc.next 166))
(define-fun .def_327 () Bool (and .def_188 .def_322))
(define-fun .def_205 () Int (+ .def_12 .def_14))
(define-fun .def_209 () Int (+ .def_205 (- 1)))
(define-fun .def_210 () Int (select .def_16 .def_209))
(define-fun .def_220 () Int (+ .def_205 (- 3)))
(define-fun .def_300 () Int (select .def_16 .def_220))
(define-fun .def_305 () Bool (<= .def_300 .def_210))
(define-fun .def_237 () Bool (= |!{$(in_main#0)<$(in_array_insert_last#5)<$(in_array_insert_last#0)<tmp>>>}| |%{$(in_main#0)<$(in_array_insert_last#5)<$(in_array_insert_last#0)<tmp>>>}#3|))
(define-fun .def_309 () Bool (and .def_237 .def_305))
(define-fun .def_206 () Int (+ .def_205 (- 2)))
(define-fun .def_207 () Int (select .def_16 .def_206))
(define-fun .def_213 () (Array Int Int) (store .def_16 .def_206 .def_210))
(define-fun .def_214 () (Array Int Int) (store .def_213 .def_209 .def_207))
(define-fun .def_243 () Bool (= .def_214 |%{%mem.0}#5|))
(define-fun .def_310 () Bool (and .def_243 .def_309))
(define-fun .def_306 () Bool (not .def_305))
(define-fun .def_304 () Bool (= |%{$(in_main#0)<$(in_array_insert_last#5)<$(in_array_insert_last#0)<tmp>>>}#3| .def_300))
(define-fun .def_307 () Bool (and .def_304 .def_306))
(define-fun .def_301 () (Array Int Int) (store .def_214 .def_220 .def_210))
(define-fun .def_302 () (Array Int Int) (store .def_301 .def_206 .def_300))
(define-fun .def_303 () Bool (= |%{%mem.0}#5| .def_302))
(define-fun .def_308 () Bool (and .def_303 .def_307))
(define-fun .def_311 () Bool (or .def_308 .def_310))
(define-fun .def_216 () Bool (<= 3 .def_12))
(define-fun .def_312 () Bool (and .def_216 .def_311))
(define-fun .def_252 () Bool (not .def_216))
(define-fun .def_256 () Bool (and .def_237 .def_252))
(define-fun .def_257 () Bool (and .def_243 .def_256))
(define-fun .def_313 () Bool (or .def_257 .def_312))
(define-fun .def_211 () Bool (<= .def_207 .def_210))
(define-fun .def_212 () Bool (not .def_211))
(define-fun .def_314 () Bool (and .def_212 .def_313))
(define-fun .def_267 () Bool (= .def_207 |%{$(in_main#0)<$(in_array_insert_last#5)<tmp>>}#3|))
(define-fun .def_315 () Bool (and .def_267 .def_314))
(define-fun .def_270 () Bool (= .def_16 |%{%mem.0}#5|))
(define-fun .def_266 () Bool (= |!{$(in_main#0)<$(in_array_insert_last#5)<tmp>>}| |%{$(in_main#0)<$(in_array_insert_last#5)<tmp>>}#3|))
(define-fun .def_268 () Bool (and .def_211 .def_266))
(define-fun .def_271 () Bool (and .def_268 .def_270))
(define-fun .def_316 () Bool (or .def_271 .def_315))
(define-fun .def_202 () Bool (<= 2 .def_12))
(define-fun .def_317 () Bool (and .def_202 .def_316))
(define-fun .def_275 () Bool (not .def_202))
(define-fun .def_277 () Bool (and .def_266 .def_275))
(define-fun .def_278 () Bool (and .def_270 .def_277))
(define-fun .def_318 () Bool (or .def_278 .def_317))
(define-fun .def_296 () Bool (= |!{$(in_main#0)<k#2>}.next| 0))
(define-fun .def_291 () Bool (= |!{%mem.0}.next| |%{%mem.0}#5|))
(define-fun .def_292 () Bool (and .def_170 .def_291))
(define-fun .def_293 () Bool (and .def_106 .def_292))
(define-fun .def_294 () Bool (and .def_108 .def_293))
(define-fun .def_295 () Bool (and .def_110 .def_294))
(define-fun .def_297 () Bool (and .def_295 .def_296))
(define-fun .def_319 () Bool (and .def_297 .def_318))
(define-fun .def_197 () Int (* (- 1) .def_20))
(define-fun .def_198 () Int (+ .def_12 .def_197))
(define-fun .def_199 () Bool (<= .def_198 2))
(define-fun .def_320 () Bool (and .def_199 .def_319))
(define-fun .def_328 () Bool (and .def_320 .def_327))
(define-fun .def_325 () Bool (and .def_322 .def_324))
(define-fun .def_281 () Int (+ |!{$(in_main#0)<l>}.next| .def_197))
(define-fun .def_282 () Bool (= .def_281 1))
(define-fun .def_283 () Bool (and .def_101 .def_282))
(define-fun .def_284 () Bool (and .def_103 .def_283))
(define-fun .def_285 () Bool (and .def_77 .def_284))
(define-fun .def_286 () Bool (and .def_106 .def_285))
(define-fun .def_287 () Bool (and .def_108 .def_286))
(define-fun .def_288 () Bool (and .def_110 .def_287))
(define-fun .def_289 () Bool (and .def_112 .def_288))
(define-fun .def_200 () Bool (not .def_199))
(define-fun .def_290 () Bool (and .def_200 .def_289))
(define-fun .def_326 () Bool (and .def_290 .def_325))
(define-fun .def_329 () Bool (or .def_326 .def_328))
(define-fun .def_180 () Bool (= .def_51 174))
(define-fun .def_189 () Bool (and .def_180 .def_188))
(define-fun .def_175 () Int (* (- 1) |!{$(in_main#0)<k#2>}.next|))
(define-fun .def_176 () Int (+ .def_22 .def_175))
(define-fun .def_177 () Bool (= .def_176 (- 1)))
(define-fun .def_174 () Bool (and .def_110 .def_173))
(define-fun .def_178 () Bool (and .def_174 .def_177))
(define-fun .def_135 () Bool (<= .def_12 .def_8))
(define-fun .def_179 () Bool (and .def_135 .def_178))
(define-fun .def_190 () Bool (and .def_179 .def_189))
(define-fun .def_127 () Bool (= !pc.next 174))
(define-fun .def_185 () Bool (and .def_127 .def_180))
(define-fun .def_137 () Int (+ .def_14 .def_22))
(define-fun .def_138 () Int (select .def_16 .def_137))
(define-fun .def_141 () Bool (<= .def_138 .def_140))
(define-fun .def_142 () Int (ite .def_141 1 0))
(define-fun .def_143 () Bool (= .def_142 0))
(define-fun .def_144 () Bool (not .def_143))
(define-fun .def_167 () Bool (and .def_144 .def_166))
(define-fun .def_136 () Bool (not .def_135))
(define-fun .def_168 () Bool (and .def_136 .def_167))
(define-fun .def_186 () Bool (and .def_168 .def_185))
(define-fun .def_182 () Bool (= !pc.next 194))
(define-fun .def_183 () Bool (and .def_180 .def_182))
(define-fun .def_148 () Bool (and .def_115 .def_143))
(define-fun .def_149 () Bool (and .def_101 .def_148))
(define-fun .def_150 () Bool (and .def_103 .def_149))
(define-fun .def_151 () Bool (and .def_77 .def_150))
(define-fun .def_152 () Bool (and .def_106 .def_151))
(define-fun .def_153 () Bool (and .def_108 .def_152))
(define-fun .def_154 () Bool (and .def_110 .def_153))
(define-fun .def_155 () Bool (and .def_112 .def_154))
(define-fun .def_156 () Bool (and .def_136 .def_155))
(define-fun .def_184 () Bool (and .def_156 .def_183))
(define-fun .def_187 () Bool (or .def_184 .def_186))
(define-fun .def_191 () Bool (or .def_187 .def_190))
(define-fun .def_130 () Bool (= !pc.next 0))
(define-fun .def_125 () Bool (= .def_51 166))
(define-fun .def_131 () Bool (and .def_125 .def_130))
(define-fun .def_94 () Int (* (- 1) .def_22))
(define-fun .def_95 () Int (+ .def_12 .def_94))
(define-fun .def_96 () Bool (<= .def_95 1))
(define-fun .def_116 () Bool (and .def_96 .def_115))
(define-fun .def_117 () Bool (and .def_101 .def_116))
(define-fun .def_118 () Bool (and .def_103 .def_117))
(define-fun .def_119 () Bool (and .def_77 .def_118))
(define-fun .def_120 () Bool (and .def_106 .def_119))
(define-fun .def_121 () Bool (and .def_108 .def_120))
(define-fun .def_122 () Bool (and .def_110 .def_121))
(define-fun .def_123 () Bool (and .def_112 .def_122))
(define-fun .def_132 () Bool (and .def_123 .def_131))
(define-fun .def_128 () Bool (and .def_125 .def_127))
(define-fun .def_99 () Int (+ |!{$(in_main#0)<l>}.next| .def_94))
(define-fun .def_100 () Bool (= .def_99 1))
(define-fun .def_102 () Bool (and .def_100 .def_101))
(define-fun .def_104 () Bool (and .def_102 .def_103))
(define-fun .def_105 () Bool (and .def_77 .def_104))
(define-fun .def_107 () Bool (and .def_105 .def_106))
(define-fun .def_109 () Bool (and .def_107 .def_108))
(define-fun .def_111 () Bool (and .def_109 .def_110))
(define-fun .def_113 () Bool (and .def_111 .def_112))
(define-fun .def_97 () Bool (not .def_96))
(define-fun .def_114 () Bool (and .def_97 .def_113))
(define-fun .def_129 () Bool (and .def_114 .def_128))
(define-fun .def_133 () Bool (or .def_129 .def_132))
(define-fun .def_90 () Bool (and .def_54 .def_89))
(define-fun .def_85 () Bool (= |!{$(in_main#0)<k#2>}.next| |%{$(in_main#0)<k#2>}#1|))
(define-fun .def_83 () Bool (= |!{$(in_main#0)<k#1>}.next| |%{$(in_main#0)<k#1>}#1|))
(define-fun .def_81 () Bool (= |!{$(in_main#0)<k>}.next| 0))
(define-fun .def_79 () Bool (= |!{$(in_main#0)<&array>}.next| 1))
(define-fun .def_75 () Bool (= |!{$(in_main#0)<N>}.next| |!{$(in_main#0)<$(in___VERIFIER_nondet_int#1)<h#<__VERIFIER_nondet_int.return>>>}|))
(define-fun .def_73 () Bool (= |!{%memaddr}.next| 2))
(define-fun .def_72 () Bool (= |!{$(in_main#0)<l>}.next| |%{$(in_main#0)<l>}#1|))
(define-fun .def_74 () Bool (and .def_72 .def_73))
(define-fun .def_76 () Bool (and .def_74 .def_75))
(define-fun .def_78 () Bool (and .def_76 .def_77))
(define-fun .def_80 () Bool (and .def_78 .def_79))
(define-fun .def_82 () Bool (and .def_80 .def_81))
(define-fun .def_84 () Bool (and .def_82 .def_83))
(define-fun .def_86 () Bool (and .def_84 .def_85))
(define-fun .def_67 () Bool (<= |!{$(in_main#0)<$(in___VERIFIER_nondet_int#1)<h#<__VERIFIER_nondet_int.return>>>}| 0))
(define-fun .def_68 () Bool (not .def_67))
(define-fun .def_69 () Int (ite .def_68 1 0))
(define-fun .def_70 () Bool (= .def_69 0))
(define-fun .def_71 () Bool (not .def_70))
(define-fun .def_87 () Bool (and .def_71 .def_86))
(define-fun .def_91 () Bool (and .def_87 .def_90))
(define-fun .def_134 () Bool (or .def_91 .def_133))
(define-fun .def_192 () Bool (or .def_134 .def_191))
(define-fun .def_330 () Bool (or .def_192 .def_329))
(define-fun .def_357 () Bool (or .def_330 .def_356))
(define-fun .def_383 () Bool (! (or .def_357 .def_382) :trans true))
(define-fun .def_193 () Bool (= .def_51 194))
(define-fun .def_384 () Bool (! (not .def_193) :invar-property 0 :invar-property-name ||))
(assert true)
